data;

/*Turnos*/
set S :=
    N E L
    ;

/*Turnos Noturnos*/
param isNightS :=
    N  1
    E  0
    L  0
    ;

/*Contratos*/
set C :=
    C0 C1 C2
    ;

param nWE := 
     C2   4
     C1   4
     C0   4
    ;

/*Enfermeiros*/
set N :=
    N0 N1 N2 N3 N4 N5 N6 N7 N8 N9
    ;

/*Turnos compatíveis com a enfermeira*/
set NS[N3] :=
    L E N
    ;

set NS[N2] :=
    L E N
    ;

set NS[N1] :=
    L E N
    ;

set NS[N0] :=
    L E N
    ;

set NS[N7] :=
    L E N
    ;

set NS[N6] :=
    L E N
    ;

set NS[N5] :=
    L E N
    ;

set NS[N4] :=
    L E N
    ;

set NS[N9] :=
    L E N
    ;

set NS[N8] :=
    L E N
    ;

/*Dias requisitados para não trabalhar*/
param nx :=
    [N3,L,13]    0
    [N3,E,13]    0
    [N3,N,13]    3
    [N3,L,2]    5
    [N3,E,2]    5
    [N3,N,2]    5
    [N3,L,22]    0
    [N3,E,22]    0
    [N3,N,22]    0
    [N3,L,25]    5
    [N3,E,25]    5
    [N3,N,25]    5
    [N3,L,28]    5
    [N3,E,28]    5
    [N3,N,28]    5
    [N3,L,26]    0
    [N3,E,26]    0
    [N3,N,26]    0
    [N3,L,4]    0
    [N3,E,4]    0
    [N3,N,4]    0
    [N3,L,12]    0
    [N3,E,12]    0
    [N3,N,12]    3
    [N3,L,18]    0
    [N3,E,18]    0
    [N3,N,18]    0
    [N3,L,19]    5
    [N3,E,19]    5
    [N3,N,19]    5
    [N3,L,8]    5
    [N3,E,8]    5
    [N3,N,8]    5
    [N3,L,20]    5
    [N3,E,20]    5
    [N3,N,20]    5
    [N3,L,5]    5
    [N3,E,5]    5
    [N3,N,5]    5
    [N3,L,21]    5
    [N3,E,21]    5
    [N3,N,21]    5
    [N3,L,14]    5
    [N3,E,14]    5
    [N3,N,14]    5
    [N3,L,1]    5
    [N3,E,1]    5
    [N3,N,1]    5
    [N2,L,11]    5
    [N2,E,11]    5
    [N2,N,11]    5
    [N2,L,2]    0
    [N2,E,2]    0
    [N2,N,2]    0
    [N2,L,3]    0
    [N2,E,3]    0
    [N2,N,3]    0
    [N2,L,24]    0
    [N2,E,24]    0
    [N2,N,24]    0
    [N2,L,20]    0
    [N2,E,20]    3
    [N2,N,20]    0
    [N2,L,1]    5
    [N2,E,1]    5
    [N2,N,1]    5
    [N2,L,17]    5
    [N2,E,17]    5
    [N2,N,17]    5
    [N2,L,8]    5
    [N2,E,8]    5
    [N2,N,8]    5
    [N2,L,22]    0
    [N2,E,22]    0
    [N2,N,22]    0
    [N2,L,14]    5
    [N2,E,14]    5
    [N2,N,14]    5
    [N2,L,23]    5
    [N2,E,23]    5
    [N2,N,23]    5
    [N2,L,26]    5
    [N2,E,26]    5
    [N2,N,26]    8
    [N2,L,15]    5
    [N2,E,15]    5
    [N2,N,15]    5
    [N2,L,25]    5
    [N2,E,25]    5
    [N2,N,25]    5
    [N2,L,9]    5
    [N2,E,9]    5
    [N2,N,9]    5
    [N1,L,16]    5
    [N1,E,16]    5
    [N1,N,16]    5
    [N1,L,2]    5
    [N1,E,2]    5
    [N1,N,2]    5
    [N1,L,14]    0
    [N1,E,14]    0
    [N1,N,14]    0
    [N1,L,11]    0
    [N1,E,11]    0
    [N1,N,11]    0
    [N1,L,7]    0
    [N1,E,7]    0
    [N1,N,7]    0
    [N1,L,4]    0
    [N1,E,4]    0
    [N1,N,4]    0
    [N1,L,3]    5
    [N1,E,3]    8
    [N1,N,3]    8
    [N1,L,5]    8
    [N1,E,5]    5
    [N1,N,5]    5
    [N1,L,22]    5
    [N1,E,22]    5
    [N1,N,22]    5
    [N1,L,12]    5
    [N1,E,12]    5
    [N1,N,12]    5
    [N1,L,19]    5
    [N1,E,19]    5
    [N1,N,19]    5
    [N1,L,10]    5
    [N1,E,10]    5
    [N1,N,10]    5
    [N1,L,21]    5
    [N1,E,21]    5
    [N1,N,21]    5
    [N1,L,23]    5
    [N1,E,23]    5
    [N1,N,23]    5
    [N0,L,7]    0
    [N0,E,7]    0
    [N0,N,7]    0
    [N0,L,1]    0
    [N0,E,1]    0
    [N0,N,1]    0
    [N0,L,23]    5
    [N0,E,23]    5
    [N0,N,23]    5
    [N0,L,25]    5
    [N0,E,25]    5
    [N0,N,25]    5
    [N0,L,12]    0
    [N0,E,12]    0
    [N0,N,12]    0
    [N0,L,4]    5
    [N0,E,4]    5
    [N0,N,4]    5
    [N0,L,17]    0
    [N0,E,17]    0
    [N0,N,17]    0
    [N0,L,10]    0
    [N0,E,10]    0
    [N0,N,10]    0
    [N0,L,27]    0
    [N0,E,27]    0
    [N0,N,27]    0
    [N0,L,18]    0
    [N0,E,18]    0
    [N0,N,18]    0
    [N0,L,2]    5
    [N0,E,2]    5
    [N0,N,2]    5
    [N0,L,3]    5
    [N0,E,3]    5
    [N0,N,3]    5
    [N0,L,6]    5
    [N0,E,6]    5
    [N0,N,6]    5
    [N0,L,20]    5
    [N0,E,20]    5
    [N0,N,20]    5
    [N0,L,28]    5
    [N0,E,28]    5
    [N0,N,28]    5
    [N0,L,14]    8
    [N0,E,14]    5
    [N0,N,14]    5
    [N0,L,15]    5
    [N0,E,15]    5
    [N0,N,15]    5
    [N7,L,25]    0
    [N7,E,25]    0
    [N7,N,25]    3
    [N7,L,24]    0
    [N7,E,24]    0
    [N7,N,24]    3
    [N7,L,10]    5
    [N7,E,10]    5
    [N7,N,10]    5
    [N7,L,5]    0
    [N7,E,5]    0
    [N7,N,5]    0
    [N7,L,11]    5
    [N7,E,11]    5
    [N7,N,11]    5
    [N7,L,21]    0
    [N7,E,21]    0
    [N7,N,21]    0
    [N7,L,7]    0
    [N7,E,7]    0
    [N7,N,7]    0
    [N7,L,19]    0
    [N7,E,19]    0
    [N7,N,19]    0
    [N7,L,9]    3
    [N7,E,9]    0
    [N7,N,9]    0
    [N7,L,18]    5
    [N7,E,18]    5
    [N7,N,18]    5
    [N7,L,15]    5
    [N7,E,15]    5
    [N7,N,15]    5
    [N7,L,26]    5
    [N7,E,26]    5
    [N7,N,26]    5
    [N7,L,14]    5
    [N7,E,14]    5
    [N7,N,14]    5
    [N7,L,3]    5
    [N7,E,3]    5
    [N7,N,3]    5
    [N7,L,1]    5
    [N7,E,1]    5
    [N7,N,1]    5
    [N7,L,12]    5
    [N7,E,12]    5
    [N7,N,12]    5
    [N7,L,8]    5
    [N7,E,8]    5
    [N7,N,8]    5
    [N6,L,25]    0
    [N6,E,25]    0
    [N6,N,25]    0
    [N6,L,28]    5
    [N6,E,28]    5
    [N6,N,28]    5
    [N6,L,1]    5
    [N6,E,1]    5
    [N6,N,1]    8
    [N6,L,6]    0
    [N6,E,6]    3
    [N6,N,6]    0
    [N6,L,3]    5
    [N6,E,3]    5
    [N6,N,3]    5
    [N6,L,18]    0
    [N6,E,18]    0
    [N6,N,18]    0
    [N6,L,5]    0
    [N6,E,5]    0
    [N6,N,5]    0
    [N6,L,2]    0
    [N6,E,2]    0
    [N6,N,2]    0
    [N6,L,11]    5
    [N6,E,11]    5
    [N6,N,11]    5
    [N6,L,26]    0
    [N6,E,26]    0
    [N6,N,26]    0
    [N6,L,22]    5
    [N6,E,22]    5
    [N6,N,22]    5
    [N6,L,21]    5
    [N6,E,21]    5
    [N6,N,21]    5
    [N6,L,13]    8
    [N6,E,13]    5
    [N6,N,13]    5
    [N6,L,20]    5
    [N6,E,20]    8
    [N6,N,20]    5
    [N6,L,4]    5
    [N6,E,4]    5
    [N6,N,4]    5
    [N6,L,15]    5
    [N6,E,15]    5
    [N6,N,15]    5
    [N5,L,15]    5
    [N5,E,15]    5
    [N5,N,15]    5
    [N5,L,2]    0
    [N5,E,2]    0
    [N5,N,2]    0
    [N5,L,23]    5
    [N5,E,23]    5
    [N5,N,23]    5
    [N5,L,3]    0
    [N5,E,3]    0
    [N5,N,3]    0
    [N5,L,18]    0
    [N5,E,18]    0
    [N5,N,18]    0
    [N5,L,28]    0
    [N5,E,28]    0
    [N5,N,28]    0
    [N5,L,12]    5
    [N5,E,12]    5
    [N5,N,12]    5
    [N5,L,26]    0
    [N5,E,26]    0
    [N5,N,26]    0
    [N5,L,6]    0
    [N5,E,6]    0
    [N5,N,6]    0
    [N5,L,4]    0
    [N5,E,4]    0
    [N5,N,4]    0
    [N5,L,20]    5
    [N5,E,20]    5
    [N5,N,20]    5
    [N5,L,9]    5
    [N5,E,9]    5
    [N5,N,9]    5
    [N5,L,13]    5
    [N5,E,13]    5
    [N5,N,13]    5
    [N5,L,10]    5
    [N5,E,10]    5
    [N5,N,10]    5
    [N5,L,21]    5
    [N5,E,21]    5
    [N5,N,21]    8
    [N5,L,1]    5
    [N5,E,1]    5
    [N5,N,1]    5
    [N5,L,8]    5
    [N5,E,8]    5
    [N5,N,8]    5
    [N4,L,2]    5
    [N4,E,2]    5
    [N4,N,2]    5
    [N4,L,28]    5
    [N4,E,28]    5
    [N4,N,28]    5
    [N4,L,19]    0
    [N4,E,19]    3
    [N4,N,19]    0
    [N4,L,15]    0
    [N4,E,15]    0
    [N4,N,15]    0
    [N4,L,11]    0
    [N4,E,11]    0
    [N4,N,11]    0
    [N4,L,21]    0
    [N4,E,21]    0
    [N4,N,21]    0
    [N4,L,4]    8
    [N4,E,4]    5
    [N4,N,4]    5
    [N4,L,20]    5
    [N4,E,20]    5
    [N4,N,20]    5
    [N4,L,6]    0
    [N4,E,6]    0
    [N4,N,6]    0
    [N4,L,5]    0
    [N4,E,5]    0
    [N4,N,5]    0
    [N4,L,1]    5
    [N4,E,1]    5
    [N4,N,1]    5
    [N4,L,13]    5
    [N4,E,13]    5
    [N4,N,13]    5
    [N4,L,26]    8
    [N4,E,26]    5
    [N4,N,26]    5
    [N4,L,14]    5
    [N4,E,14]    5
    [N4,N,14]    5
    [N4,L,3]    5
    [N4,E,3]    5
    [N4,N,3]    5
    [N4,L,7]    5
    [N4,E,7]    5
    [N4,N,7]    5
    [N9,L,6]    0
    [N9,E,6]    0
    [N9,N,6]    0
    [N9,L,27]    0
    [N9,E,27]    0
    [N9,N,27]    0
    [N9,L,28]    5
    [N9,E,28]    5
    [N9,N,28]    5
    [N9,L,2]    5
    [N9,E,2]    5
    [N9,N,2]    5
    [N9,L,26]    5
    [N9,E,26]    5
    [N9,N,26]    5
    [N9,L,15]    0
    [N9,E,15]    0
    [N9,N,15]    0
    [N9,L,9]    5
    [N9,E,9]    5
    [N9,N,9]    5
    [N9,L,19]    5
    [N9,E,19]    5
    [N9,N,19]    5
    [N9,L,24]    3
    [N9,E,24]    0
    [N9,N,24]    0
    [N9,L,17]    5
    [N9,E,17]    5
    [N9,N,17]    5
    [N9,L,20]    5
    [N9,E,20]    5
    [N9,N,20]    5
    [N9,L,4]    5
    [N9,E,4]    5
    [N9,N,4]    5
    [N9,L,16]    5
    [N9,E,16]    5
    [N9,N,16]    5
    [N9,L,22]    8
    [N9,E,22]    5
    [N9,N,22]    5
    [N8,L,15]    0
    [N8,E,15]    0
    [N8,N,15]    0
    [N8,L,13]    8
    [N8,E,13]    5
    [N8,N,13]    5
    [N8,L,12]    5
    [N8,E,12]    5
    [N8,N,12]    5
    [N8,L,9]    5
    [N8,E,9]    5
    [N8,N,9]    5
    [N8,L,20]    5
    [N8,E,20]    5
    [N8,N,20]    5
    [N8,L,1]    0
    [N8,E,1]    0
    [N8,N,1]    0
    [N8,L,18]    5
    [N8,E,18]    8
    [N8,N,18]    5
    [N8,L,3]    5
    [N8,E,3]    5
    [N8,N,3]    5
    [N8,L,5]    3
    [N8,E,5]    3
    [N8,N,5]    0
    [N8,L,11]    0
    [N8,E,11]    0
    [N8,N,11]    0
    [N8,L,8]    5
    [N8,E,8]    5
    [N8,N,8]    5
    [N8,L,7]    5
    [N8,E,7]    5
    [N8,N,7]    5
    [N8,L,23]    5
    [N8,E,23]    5
    [N8,N,23]    5
    [N8,L,4]    5
    [N8,E,4]    5
    [N8,N,4]    5
    [N3,E,7]    0
    [N3,N,7]    3
    [N3,L,11]    3
    [N3,L,24]    3
    [N2,E,27]    0
    [N2,L,16]    0
    [N2,E,6]    0
    [N2,N,18]    3
    [N2,E,19]    3
    [N2,N,5]    3
    [N1,E,17]    0
    [N1,N,28]    3
    [N1,E,15]    3
    [N0,N,16]    0
    [N0,L,5]    0
    [N0,E,16]    3
    [N0,L,21]    3
    [N0,E,22]    3
    [N0,E,13]    3
    [N7,N,13]    0
    [N7,E,23]    0
    [N7,N,23]    3
    [N7,N,6]    3
    [N6,E,14]    3
    [N5,L,5]    0
    [N5,L,17]    0
    [N5,E,25]    3
    [N5,E,17]    3
    [N5,E,11]    3
    [N5,L,14]    3
    [N4,E,18]    0
    [N4,E,8]    0
    [N4,N,12]    0
    [N4,L,25]    3
    [N4,E,24]    3
    [N9,L,5]    0
    [N9,N,10]    0
    [N9,N,3]    3
    [N9,N,7]    3
    [N9,E,21]    3
    [N8,N,21]    0
    [N8,L,6]    0
    [N8,E,24]    0
    [N8,E,19]    3
    ;

/*Dias*/
set D :=
    1 2 3 4 5 6 7 8 9 10 11 12 13 14 15 16 17 18 19 20
    21 22 23 24 25 26 27 28
    ;

/*dias correspondentes ao i-esimo final de semana*/
set WE[C2, 1] :=
   02 03
    ;
set WE[C2, 2] :=
   09 10
    ;
set WE[C2, 3] :=
   16 17
    ;
set WE[C2, 4] :=
   23 24
    ;
set WE[C1, 1] :=
   02 03
    ;
set WE[C1, 2] :=
   09 10
    ;
set WE[C1, 3] :=
   16 17
    ;
set WE[C1, 4] :=
   23 24
    ;
set WE[C0, 1] :=
   02 03
    ;
set WE[C0, 2] :=
   09 10
    ;
set WE[C0, 3] :=
   16 17
    ;
set WE[C0, 4] :=
   23 24
    ;

/*Número de padrões de FDS do contrato C*/
param nWP := 
     C2   256
     C1   256
     C0   256
    ;

/*    02 03 09 10 16 17 23 24  */
   0 0 0 0 0 0 0 0 
   0 0 0 0 0 0 0 1 
   0 0 0 0 0 0 1 0 
   0 0 0 0 0 0 1 1 
   0 0 0 0 0 1 0 0 
   0 0 0 0 0 1 0 1 
   0 0 0 0 0 1 1 0 
   0 0 0 0 0 1 1 1 
   0 0 0 0 1 0 0 0 
   0 0 0 0 1 0 0 1 
   0 0 0 0 1 0 1 0 
   0 0 0 0 1 0 1 1 
   0 0 0 0 1 1 0 0 
   0 0 0 0 1 1 0 1 
   0 0 0 0 1 1 1 0 
   0 0 0 0 1 1 1 1 
   0 0 0 1 0 0 0 0 
   0 0 0 1 0 0 0 1 
   0 0 0 1 0 0 1 0 
   0 0 0 1 0 0 1 1 
   0 0 0 1 0 1 0 0 
   0 0 0 1 0 1 0 1 
   0 0 0 1 0 1 1 0 
   0 0 0 1 0 1 1 1 
   0 0 0 1 1 0 0 0 
   0 0 0 1 1 0 0 1 
   0 0 0 1 1 0 1 0 
   0 0 0 1 1 0 1 1 
   0 0 0 1 1 1 0 0 
   0 0 0 1 1 1 0 1 
   0 0 0 1 1 1 1 0 
   0 0 0 1 1 1 1 1 
   0 0 1 0 0 0 0 0 
   0 0 1 0 0 0 0 1 
   0 0 1 0 0 0 1 0 
   0 0 1 0 0 0 1 1 
   0 0 1 0 0 1 0 0 
   0 0 1 0 0 1 0 1 
   0 0 1 0 0 1 1 0 
   0 0 1 0 0 1 1 1 
   0 0 1 0 1 0 0 0 
   0 0 1 0 1 0 0 1 
   0 0 1 0 1 0 1 0 
   0 0 1 0 1 0 1 1 
   0 0 1 0 1 1 0 0 
   0 0 1 0 1 1 0 1 
   0 0 1 0 1 1 1 0 
   0 0 1 0 1 1 1 1 
   0 0 1 1 0 0 0 0 
   0 0 1 1 0 0 0 1 
   0 0 1 1 0 0 1 0 
   0 0 1 1 0 0 1 1 
   0 0 1 1 0 1 0 0 
   0 0 1 1 0 1 0 1 
   0 0 1 1 0 1 1 0 
   0 0 1 1 0 1 1 1 
   0 0 1 1 1 0 0 0 
   0 0 1 1 1 0 0 1 
   0 0 1 1 1 0 1 0 
   0 0 1 1 1 0 1 1 
   0 0 1 1 1 1 0 0 
   0 0 1 1 1 1 0 1 
   0 0 1 1 1 1 1 0 
   0 0 1 1 1 1 1 1 
   0 1 0 0 0 0 0 0 
   0 1 0 0 0 0 0 1 
   0 1 0 0 0 0 1 0 
   0 1 0 0 0 0 1 1 
   0 1 0 0 0 1 0 0 
   0 1 0 0 0 1 0 1 
   0 1 0 0 0 1 1 0 
   0 1 0 0 0 1 1 1 
   0 1 0 0 1 0 0 0 
   0 1 0 0 1 0 0 1 
   0 1 0 0 1 0 1 0 
   0 1 0 0 1 0 1 1 
   0 1 0 0 1 1 0 0 
   0 1 0 0 1 1 0 1 
   0 1 0 0 1 1 1 0 
   0 1 0 0 1 1 1 1 
   0 1 0 1 0 0 0 0 
   0 1 0 1 0 0 0 1 
   0 1 0 1 0 0 1 0 
   0 1 0 1 0 0 1 1 
   0 1 0 1 0 1 0 0 
   0 1 0 1 0 1 0 1 
   0 1 0 1 0 1 1 0 
   0 1 0 1 0 1 1 1 
   0 1 0 1 1 0 0 0 
   0 1 0 1 1 0 0 1 
   0 1 0 1 1 0 1 0 
   0 1 0 1 1 0 1 1 
   0 1 0 1 1 1 0 0 
   0 1 0 1 1 1 0 1 
   0 1 0 1 1 1 1 0 
   0 1 0 1 1 1 1 1 
   0 1 1 0 0 0 0 0 
   0 1 1 0 0 0 0 1 
   0 1 1 0 0 0 1 0 
   0 1 1 0 0 0 1 1 
   0 1 1 0 0 1 0 0 
   0 1 1 0 0 1 0 1 
   0 1 1 0 0 1 1 0 
   0 1 1 0 0 1 1 1 
   0 1 1 0 1 0 0 0 
   0 1 1 0 1 0 0 1 
   0 1 1 0 1 0 1 0 
   0 1 1 0 1 0 1 1 
   0 1 1 0 1 1 0 0 
   0 1 1 0 1 1 0 1 
   0 1 1 0 1 1 1 0 
   0 1 1 0 1 1 1 1 
   0 1 1 1 0 0 0 0 
   0 1 1 1 0 0 0 1 
   0 1 1 1 0 0 1 0 
   0 1 1 1 0 0 1 1 
   0 1 1 1 0 1 0 0 
   0 1 1 1 0 1 0 1 
   0 1 1 1 0 1 1 0 
   0 1 1 1 0 1 1 1 
   0 1 1 1 1 0 0 0 
   0 1 1 1 1 0 0 1 
   0 1 1 1 1 0 1 0 
   0 1 1 1 1 0 1 1 
   0 1 1 1 1 1 0 0 
   0 1 1 1 1 1 0 1 
   0 1 1 1 1 1 1 0 
   0 1 1 1 1 1 1 1 
   1 0 0 0 0 0 0 0 
   1 0 0 0 0 0 0 1 
   1 0 0 0 0 0 1 0 
   1 0 0 0 0 0 1 1 
   1 0 0 0 0 1 0 0 
   1 0 0 0 0 1 0 1 
   1 0 0 0 0 1 1 0 
   1 0 0 0 0 1 1 1 
   1 0 0 0 1 0 0 0 
   1 0 0 0 1 0 0 1 
   1 0 0 0 1 0 1 0 
   1 0 0 0 1 0 1 1 
   1 0 0 0 1 1 0 0 
   1 0 0 0 1 1 0 1 
   1 0 0 0 1 1 1 0 
   1 0 0 0 1 1 1 1 
   1 0 0 1 0 0 0 0 
   1 0 0 1 0 0 0 1 
   1 0 0 1 0 0 1 0 
   1 0 0 1 0 0 1 1 
   1 0 0 1 0 1 0 0 
   1 0 0 1 0 1 0 1 
   1 0 0 1 0 1 1 0 
   1 0 0 1 0 1 1 1 
   1 0 0 1 1 0 0 0 
   1 0 0 1 1 0 0 1 
   1 0 0 1 1 0 1 0 
   1 0 0 1 1 0 1 1 
   1 0 0 1 1 1 0 0 
   1 0 0 1 1 1 0 1 
   1 0 0 1 1 1 1 0 
   1 0 0 1 1 1 1 1 
   1 0 1 0 0 0 0 0 
   1 0 1 0 0 0 0 1 
   1 0 1 0 0 0 1 0 
   1 0 1 0 0 0 1 1 
   1 0 1 0 0 1 0 0 
   1 0 1 0 0 1 0 1 
   1 0 1 0 0 1 1 0 
   1 0 1 0 0 1 1 1 
   1 0 1 0 1 0 0 0 
   1 0 1 0 1 0 0 1 
   1 0 1 0 1 0 1 0 
   1 0 1 0 1 0 1 1 
   1 0 1 0 1 1 0 0 
   1 0 1 0 1 1 0 1 
   1 0 1 0 1 1 1 0 
   1 0 1 0 1 1 1 1 
   1 0 1 1 0 0 0 0 
   1 0 1 1 0 0 0 1 
   1 0 1 1 0 0 1 0 
   1 0 1 1 0 0 1 1 
   1 0 1 1 0 1 0 0 
   1 0 1 1 0 1 0 1 
   1 0 1 1 0 1 1 0 
   1 0 1 1 0 1 1 1 
   1 0 1 1 1 0 0 0 
   1 0 1 1 1 0 0 1 
   1 0 1 1 1 0 1 0 
   1 0 1 1 1 0 1 1 
   1 0 1 1 1 1 0 0 
   1 0 1 1 1 1 0 1 
   1 0 1 1 1 1 1 0 
   1 0 1 1 1 1 1 1 
   1 1 0 0 0 0 0 0 
   1 1 0 0 0 0 0 1 
   1 1 0 0 0 0 1 0 
   1 1 0 0 0 0 1 1 
   1 1 0 0 0 1 0 0 
   1 1 0 0 0 1 0 1 
   1 1 0 0 0 1 1 0 
   1 1 0 0 0 1 1 1 
   1 1 0 0 1 0 0 0 
   1 1 0 0 1 0 0 1 
   1 1 0 0 1 0 1 0 
   1 1 0 0 1 0 1 1 
   1 1 0 0 1 1 0 0 
   1 1 0 0 1 1 0 1 
   1 1 0 0 1 1 1 0 
   1 1 0 0 1 1 1 1 
   1 1 0 1 0 0 0 0 
   1 1 0 1 0 0 0 1 
   1 1 0 1 0 0 1 0 
   1 1 0 1 0 0 1 1 
   1 1 0 1 0 1 0 0 
   1 1 0 1 0 1 0 1 
   1 1 0 1 0 1 1 0 
   1 1 0 1 0 1 1 1 
   1 1 0 1 1 0 0 0 
   1 1 0 1 1 0 0 1 
   1 1 0 1 1 0 1 0 
   1 1 0 1 1 0 1 1 
   1 1 0 1 1 1 0 0 
   1 1 0 1 1 1 0 1 
   1 1 0 1 1 1 1 0 
   1 1 0 1 1 1 1 1 
   1 1 1 0 0 0 0 0 
   1 1 1 0 0 0 0 1 
   1 1 1 0 0 0 1 0 
   1 1 1 0 0 0 1 1 
   1 1 1 0 0 1 0 0 
   1 1 1 0 0 1 0 1 
   1 1 1 0 0 1 1 0 
   1 1 1 0 0 1 1 1 
   1 1 1 0 1 0 0 0 
   1 1 1 0 1 0 0 1 
   1 1 1 0 1 0 1 0 
   1 1 1 0 1 0 1 1 
   1 1 1 0 1 1 0 0 
   1 1 1 0 1 1 0 1 
   1 1 1 0 1 1 1 0 
   1 1 1 0 1 1 1 1 
   1 1 1 1 0 0 0 0 
   1 1 1 1 0 0 0 1 
   1 1 1 1 0 0 1 0 
   1 1 1 1 0 0 1 1 
   1 1 1 1 0 1 0 0 
   1 1 1 1 0 1 0 1 
   1 1 1 1 0 1 1 0 
   1 1 1 1 0 1 1 1 
   1 1 1 1 1 0 0 0 
   1 1 1 1 1 0 0 1 
   1 1 1 1 1 0 1 0 
   1 1 1 1 1 0 1 1 
   1 1 1 1 1 1 0 0 
   1 1 1 1 1 1 0 1 
   1 1 1 1 1 1 1 0 
   1 1 1 1 1 1 1 1 
   
/*    02 03 09 10 16 17 23 24  */
   0 0 0 0 0 0 0 0 
   0 0 0 0 0 0 0 1 
   0 0 0 0 0 0 1 0 
   0 0 0 0 0 0 1 1 
   0 0 0 0 0 1 0 0 
   0 0 0 0 0 1 0 1 
   0 0 0 0 0 1 1 0 
   0 0 0 0 0 1 1 1 
   0 0 0 0 1 0 0 0 
   0 0 0 0 1 0 0 1 
   0 0 0 0 1 0 1 0 
   0 0 0 0 1 0 1 1 
   0 0 0 0 1 1 0 0 
   0 0 0 0 1 1 0 1 
   0 0 0 0 1 1 1 0 
   0 0 0 0 1 1 1 1 
   0 0 0 1 0 0 0 0 
   0 0 0 1 0 0 0 1 
   0 0 0 1 0 0 1 0 
   0 0 0 1 0 0 1 1 
   0 0 0 1 0 1 0 0 
   0 0 0 1 0 1 0 1 
   0 0 0 1 0 1 1 0 
   0 0 0 1 0 1 1 1 
   0 0 0 1 1 0 0 0 
   0 0 0 1 1 0 0 1 
   0 0 0 1 1 0 1 0 
   0 0 0 1 1 0 1 1 
   0 0 0 1 1 1 0 0 
   0 0 0 1 1 1 0 1 
   0 0 0 1 1 1 1 0 
   0 0 0 1 1 1 1 1 
   0 0 1 0 0 0 0 0 
   0 0 1 0 0 0 0 1 
   0 0 1 0 0 0 1 0 
   0 0 1 0 0 0 1 1 
   0 0 1 0 0 1 0 0 
   0 0 1 0 0 1 0 1 
   0 0 1 0 0 1 1 0 
   0 0 1 0 0 1 1 1 
   0 0 1 0 1 0 0 0 
   0 0 1 0 1 0 0 1 
   0 0 1 0 1 0 1 0 
   0 0 1 0 1 0 1 1 
   0 0 1 0 1 1 0 0 
   0 0 1 0 1 1 0 1 
   0 0 1 0 1 1 1 0 
   0 0 1 0 1 1 1 1 
   0 0 1 1 0 0 0 0 
   0 0 1 1 0 0 0 1 
   0 0 1 1 0 0 1 0 
   0 0 1 1 0 0 1 1 
   0 0 1 1 0 1 0 0 
   0 0 1 1 0 1 0 1 
   0 0 1 1 0 1 1 0 
   0 0 1 1 0 1 1 1 
   0 0 1 1 1 0 0 0 
   0 0 1 1 1 0 0 1 
   0 0 1 1 1 0 1 0 
   0 0 1 1 1 0 1 1 
   0 0 1 1 1 1 0 0 
   0 0 1 1 1 1 0 1 
   0 0 1 1 1 1 1 0 
   0 0 1 1 1 1 1 1 
   0 1 0 0 0 0 0 0 
   0 1 0 0 0 0 0 1 
   0 1 0 0 0 0 1 0 
   0 1 0 0 0 0 1 1 
   0 1 0 0 0 1 0 0 
   0 1 0 0 0 1 0 1 
   0 1 0 0 0 1 1 0 
   0 1 0 0 0 1 1 1 
   0 1 0 0 1 0 0 0 
   0 1 0 0 1 0 0 1 
   0 1 0 0 1 0 1 0 
   0 1 0 0 1 0 1 1 
   0 1 0 0 1 1 0 0 
   0 1 0 0 1 1 0 1 
   0 1 0 0 1 1 1 0 
   0 1 0 0 1 1 1 1 
   0 1 0 1 0 0 0 0 
   0 1 0 1 0 0 0 1 
   0 1 0 1 0 0 1 0 
   0 1 0 1 0 0 1 1 
   0 1 0 1 0 1 0 0 
   0 1 0 1 0 1 0 1 
   0 1 0 1 0 1 1 0 
   0 1 0 1 0 1 1 1 
   0 1 0 1 1 0 0 0 
   0 1 0 1 1 0 0 1 
   0 1 0 1 1 0 1 0 
   0 1 0 1 1 0 1 1 
   0 1 0 1 1 1 0 0 
   0 1 0 1 1 1 0 1 
   0 1 0 1 1 1 1 0 
   0 1 0 1 1 1 1 1 
   0 1 1 0 0 0 0 0 
   0 1 1 0 0 0 0 1 
   0 1 1 0 0 0 1 0 
   0 1 1 0 0 0 1 1 
   0 1 1 0 0 1 0 0 
   0 1 1 0 0 1 0 1 
   0 1 1 0 0 1 1 0 
   0 1 1 0 0 1 1 1 
   0 1 1 0 1 0 0 0 
   0 1 1 0 1 0 0 1 
   0 1 1 0 1 0 1 0 
   0 1 1 0 1 0 1 1 
   0 1 1 0 1 1 0 0 
   0 1 1 0 1 1 0 1 
   0 1 1 0 1 1 1 0 
   0 1 1 0 1 1 1 1 
   0 1 1 1 0 0 0 0 
   0 1 1 1 0 0 0 1 
   0 1 1 1 0 0 1 0 
   0 1 1 1 0 0 1 1 
   0 1 1 1 0 1 0 0 
   0 1 1 1 0 1 0 1 
   0 1 1 1 0 1 1 0 
   0 1 1 1 0 1 1 1 
   0 1 1 1 1 0 0 0 
   0 1 1 1 1 0 0 1 
   0 1 1 1 1 0 1 0 
   0 1 1 1 1 0 1 1 
   0 1 1 1 1 1 0 0 
   0 1 1 1 1 1 0 1 
   0 1 1 1 1 1 1 0 
   0 1 1 1 1 1 1 1 
   1 0 0 0 0 0 0 0 
   1 0 0 0 0 0 0 1 
   1 0 0 0 0 0 1 0 
   1 0 0 0 0 0 1 1 
   1 0 0 0 0 1 0 0 
   1 0 0 0 0 1 0 1 
   1 0 0 0 0 1 1 0 
   1 0 0 0 0 1 1 1 
   1 0 0 0 1 0 0 0 
   1 0 0 0 1 0 0 1 
   1 0 0 0 1 0 1 0 
   1 0 0 0 1 0 1 1 
   1 0 0 0 1 1 0 0 
   1 0 0 0 1 1 0 1 
   1 0 0 0 1 1 1 0 
   1 0 0 0 1 1 1 1 
   1 0 0 1 0 0 0 0 
   1 0 0 1 0 0 0 1 
   1 0 0 1 0 0 1 0 
   1 0 0 1 0 0 1 1 
   1 0 0 1 0 1 0 0 
   1 0 0 1 0 1 0 1 
   1 0 0 1 0 1 1 0 
   1 0 0 1 0 1 1 1 
   1 0 0 1 1 0 0 0 
   1 0 0 1 1 0 0 1 
   1 0 0 1 1 0 1 0 
   1 0 0 1 1 0 1 1 
   1 0 0 1 1 1 0 0 
   1 0 0 1 1 1 0 1 
   1 0 0 1 1 1 1 0 
   1 0 0 1 1 1 1 1 
   1 0 1 0 0 0 0 0 
   1 0 1 0 0 0 0 1 
   1 0 1 0 0 0 1 0 
   1 0 1 0 0 0 1 1 
   1 0 1 0 0 1 0 0 
   1 0 1 0 0 1 0 1 
   1 0 1 0 0 1 1 0 
   1 0 1 0 0 1 1 1 
   1 0 1 0 1 0 0 0 
   1 0 1 0 1 0 0 1 
   1 0 1 0 1 0 1 0 
   1 0 1 0 1 0 1 1 
   1 0 1 0 1 1 0 0 
   1 0 1 0 1 1 0 1 
   1 0 1 0 1 1 1 0 
   1 0 1 0 1 1 1 1 
   1 0 1 1 0 0 0 0 
   1 0 1 1 0 0 0 1 
   1 0 1 1 0 0 1 0 
   1 0 1 1 0 0 1 1 
   1 0 1 1 0 1 0 0 
   1 0 1 1 0 1 0 1 
   1 0 1 1 0 1 1 0 
   1 0 1 1 0 1 1 1 
   1 0 1 1 1 0 0 0 
   1 0 1 1 1 0 0 1 
   1 0 1 1 1 0 1 0 
   1 0 1 1 1 0 1 1 
   1 0 1 1 1 1 0 0 
   1 0 1 1 1 1 0 1 
   1 0 1 1 1 1 1 0 
   1 0 1 1 1 1 1 1 
   1 1 0 0 0 0 0 0 
   1 1 0 0 0 0 0 1 
   1 1 0 0 0 0 1 0 
   1 1 0 0 0 0 1 1 
   1 1 0 0 0 1 0 0 
   1 1 0 0 0 1 0 1 
   1 1 0 0 0 1 1 0 
   1 1 0 0 0 1 1 1 
   1 1 0 0 1 0 0 0 
   1 1 0 0 1 0 0 1 
   1 1 0 0 1 0 1 0 
   1 1 0 0 1 0 1 1 
   1 1 0 0 1 1 0 0 
   1 1 0 0 1 1 0 1 
   1 1 0 0 1 1 1 0 
   1 1 0 0 1 1 1 1 
   1 1 0 1 0 0 0 0 
   1 1 0 1 0 0 0 1 
   1 1 0 1 0 0 1 0 
   1 1 0 1 0 0 1 1 
   1 1 0 1 0 1 0 0 
   1 1 0 1 0 1 0 1 
   1 1 0 1 0 1 1 0 
   1 1 0 1 0 1 1 1 
   1 1 0 1 1 0 0 0 
   1 1 0 1 1 0 0 1 
   1 1 0 1 1 0 1 0 
   1 1 0 1 1 0 1 1 
   1 1 0 1 1 1 0 0 
   1 1 0 1 1 1 0 1 
   1 1 0 1 1 1 1 0 
   1 1 0 1 1 1 1 1 
   1 1 1 0 0 0 0 0 
   1 1 1 0 0 0 0 1 
   1 1 1 0 0 0 1 0 
   1 1 1 0 0 0 1 1 
   1 1 1 0 0 1 0 0 
   1 1 1 0 0 1 0 1 
   1 1 1 0 0 1 1 0 
   1 1 1 0 0 1 1 1 
   1 1 1 0 1 0 0 0 
   1 1 1 0 1 0 0 1 
   1 1 1 0 1 0 1 0 
   1 1 1 0 1 0 1 1 
   1 1 1 0 1 1 0 0 
   1 1 1 0 1 1 0 1 
   1 1 1 0 1 1 1 0 
   1 1 1 0 1 1 1 1 
   1 1 1 1 0 0 0 0 
   1 1 1 1 0 0 0 1 
   1 1 1 1 0 0 1 0 
   1 1 1 1 0 0 1 1 
   1 1 1 1 0 1 0 0 
   1 1 1 1 0 1 0 1 
   1 1 1 1 0 1 1 0 
   1 1 1 1 0 1 1 1 
   1 1 1 1 1 0 0 0 
   1 1 1 1 1 0 0 1 
   1 1 1 1 1 0 1 0 
   1 1 1 1 1 0 1 1 
   1 1 1 1 1 1 0 0 
   1 1 1 1 1 1 0 1 
   1 1 1 1 1 1 1 0 
   1 1 1 1 1 1 1 1 
   
/*    02 03 09 10 16 17 23 24  */
   0 0 0 0 0 0 0 0 
   0 0 0 0 0 0 0 1 
   0 0 0 0 0 0 1 0 
   0 0 0 0 0 0 1 1 
   0 0 0 0 0 1 0 0 
   0 0 0 0 0 1 0 1 
   0 0 0 0 0 1 1 0 
   0 0 0 0 0 1 1 1 
   0 0 0 0 1 0 0 0 
   0 0 0 0 1 0 0 1 
   0 0 0 0 1 0 1 0 
   0 0 0 0 1 0 1 1 
   0 0 0 0 1 1 0 0 
   0 0 0 0 1 1 0 1 
   0 0 0 0 1 1 1 0 
   0 0 0 0 1 1 1 1 
   0 0 0 1 0 0 0 0 
   0 0 0 1 0 0 0 1 
   0 0 0 1 0 0 1 0 
   0 0 0 1 0 0 1 1 
   0 0 0 1 0 1 0 0 
   0 0 0 1 0 1 0 1 
   0 0 0 1 0 1 1 0 
   0 0 0 1 0 1 1 1 
   0 0 0 1 1 0 0 0 
   0 0 0 1 1 0 0 1 
   0 0 0 1 1 0 1 0 
   0 0 0 1 1 0 1 1 
   0 0 0 1 1 1 0 0 
   0 0 0 1 1 1 0 1 
   0 0 0 1 1 1 1 0 
   0 0 0 1 1 1 1 1 
   0 0 1 0 0 0 0 0 
   0 0 1 0 0 0 0 1 
   0 0 1 0 0 0 1 0 
   0 0 1 0 0 0 1 1 
   0 0 1 0 0 1 0 0 
   0 0 1 0 0 1 0 1 
   0 0 1 0 0 1 1 0 
   0 0 1 0 0 1 1 1 
   0 0 1 0 1 0 0 0 
   0 0 1 0 1 0 0 1 
   0 0 1 0 1 0 1 0 
   0 0 1 0 1 0 1 1 
   0 0 1 0 1 1 0 0 
   0 0 1 0 1 1 0 1 
   0 0 1 0 1 1 1 0 
   0 0 1 0 1 1 1 1 
   0 0 1 1 0 0 0 0 
   0 0 1 1 0 0 0 1 
   0 0 1 1 0 0 1 0 
   0 0 1 1 0 0 1 1 
   0 0 1 1 0 1 0 0 
   0 0 1 1 0 1 0 1 
   0 0 1 1 0 1 1 0 
   0 0 1 1 0 1 1 1 
   0 0 1 1 1 0 0 0 
   0 0 1 1 1 0 0 1 
   0 0 1 1 1 0 1 0 
   0 0 1 1 1 0 1 1 
   0 0 1 1 1 1 0 0 
   0 0 1 1 1 1 0 1 
   0 0 1 1 1 1 1 0 
   0 0 1 1 1 1 1 1 
   0 1 0 0 0 0 0 0 
   0 1 0 0 0 0 0 1 
   0 1 0 0 0 0 1 0 
   0 1 0 0 0 0 1 1 
   0 1 0 0 0 1 0 0 
   0 1 0 0 0 1 0 1 
   0 1 0 0 0 1 1 0 
   0 1 0 0 0 1 1 1 
   0 1 0 0 1 0 0 0 
   0 1 0 0 1 0 0 1 
   0 1 0 0 1 0 1 0 
   0 1 0 0 1 0 1 1 
   0 1 0 0 1 1 0 0 
   0 1 0 0 1 1 0 1 
   0 1 0 0 1 1 1 0 
   0 1 0 0 1 1 1 1 
   0 1 0 1 0 0 0 0 
   0 1 0 1 0 0 0 1 
   0 1 0 1 0 0 1 0 
   0 1 0 1 0 0 1 1 
   0 1 0 1 0 1 0 0 
   0 1 0 1 0 1 0 1 
   0 1 0 1 0 1 1 0 
   0 1 0 1 0 1 1 1 
   0 1 0 1 1 0 0 0 
   0 1 0 1 1 0 0 1 
   0 1 0 1 1 0 1 0 
   0 1 0 1 1 0 1 1 
   0 1 0 1 1 1 0 0 
   0 1 0 1 1 1 0 1 
   0 1 0 1 1 1 1 0 
   0 1 0 1 1 1 1 1 
   0 1 1 0 0 0 0 0 
   0 1 1 0 0 0 0 1 
   0 1 1 0 0 0 1 0 
   0 1 1 0 0 0 1 1 
   0 1 1 0 0 1 0 0 
   0 1 1 0 0 1 0 1 
   0 1 1 0 0 1 1 0 
   0 1 1 0 0 1 1 1 
   0 1 1 0 1 0 0 0 
   0 1 1 0 1 0 0 1 
   0 1 1 0 1 0 1 0 
   0 1 1 0 1 0 1 1 
   0 1 1 0 1 1 0 0 
   0 1 1 0 1 1 0 1 
   0 1 1 0 1 1 1 0 
   0 1 1 0 1 1 1 1 
   0 1 1 1 0 0 0 0 
   0 1 1 1 0 0 0 1 
   0 1 1 1 0 0 1 0 
   0 1 1 1 0 0 1 1 
   0 1 1 1 0 1 0 0 
   0 1 1 1 0 1 0 1 
   0 1 1 1 0 1 1 0 
   0 1 1 1 0 1 1 1 
   0 1 1 1 1 0 0 0 
   0 1 1 1 1 0 0 1 
   0 1 1 1 1 0 1 0 
   0 1 1 1 1 0 1 1 
   0 1 1 1 1 1 0 0 
   0 1 1 1 1 1 0 1 
   0 1 1 1 1 1 1 0 
   0 1 1 1 1 1 1 1 
   1 0 0 0 0 0 0 0 
   1 0 0 0 0 0 0 1 
   1 0 0 0 0 0 1 0 
   1 0 0 0 0 0 1 1 
   1 0 0 0 0 1 0 0 
   1 0 0 0 0 1 0 1 
   1 0 0 0 0 1 1 0 
   1 0 0 0 0 1 1 1 
   1 0 0 0 1 0 0 0 
   1 0 0 0 1 0 0 1 
   1 0 0 0 1 0 1 0 
   1 0 0 0 1 0 1 1 
   1 0 0 0 1 1 0 0 
   1 0 0 0 1 1 0 1 
   1 0 0 0 1 1 1 0 
   1 0 0 0 1 1 1 1 
   1 0 0 1 0 0 0 0 
   1 0 0 1 0 0 0 1 
   1 0 0 1 0 0 1 0 
   1 0 0 1 0 0 1 1 
   1 0 0 1 0 1 0 0 
   1 0 0 1 0 1 0 1 
   1 0 0 1 0 1 1 0 
   1 0 0 1 0 1 1 1 
   1 0 0 1 1 0 0 0 
   1 0 0 1 1 0 0 1 
   1 0 0 1 1 0 1 0 
   1 0 0 1 1 0 1 1 
   1 0 0 1 1 1 0 0 
   1 0 0 1 1 1 0 1 
   1 0 0 1 1 1 1 0 
   1 0 0 1 1 1 1 1 
   1 0 1 0 0 0 0 0 
   1 0 1 0 0 0 0 1 
   1 0 1 0 0 0 1 0 
   1 0 1 0 0 0 1 1 
   1 0 1 0 0 1 0 0 
   1 0 1 0 0 1 0 1 
   1 0 1 0 0 1 1 0 
   1 0 1 0 0 1 1 1 
   1 0 1 0 1 0 0 0 
   1 0 1 0 1 0 0 1 
   1 0 1 0 1 0 1 0 
   1 0 1 0 1 0 1 1 
   1 0 1 0 1 1 0 0 
   1 0 1 0 1 1 0 1 
   1 0 1 0 1 1 1 0 
   1 0 1 0 1 1 1 1 
   1 0 1 1 0 0 0 0 
   1 0 1 1 0 0 0 1 
   1 0 1 1 0 0 1 0 
   1 0 1 1 0 0 1 1 
   1 0 1 1 0 1 0 0 
   1 0 1 1 0 1 0 1 
   1 0 1 1 0 1 1 0 
   1 0 1 1 0 1 1 1 
   1 0 1 1 1 0 0 0 
   1 0 1 1 1 0 0 1 
   1 0 1 1 1 0 1 0 
   1 0 1 1 1 0 1 1 
   1 0 1 1 1 1 0 0 
   1 0 1 1 1 1 0 1 
   1 0 1 1 1 1 1 0 
   1 0 1 1 1 1 1 1 
   1 1 0 0 0 0 0 0 
   1 1 0 0 0 0 0 1 
   1 1 0 0 0 0 1 0 
   1 1 0 0 0 0 1 1 
   1 1 0 0 0 1 0 0 
   1 1 0 0 0 1 0 1 
   1 1 0 0 0 1 1 0 
   1 1 0 0 0 1 1 1 
   1 1 0 0 1 0 0 0 
   1 1 0 0 1 0 0 1 
   1 1 0 0 1 0 1 0 
   1 1 0 0 1 0 1 1 
   1 1 0 0 1 1 0 0 
   1 1 0 0 1 1 0 1 
   1 1 0 0 1 1 1 0 
   1 1 0 0 1 1 1 1 
   1 1 0 1 0 0 0 0 
   1 1 0 1 0 0 0 1 
   1 1 0 1 0 0 1 0 
   1 1 0 1 0 0 1 1 
   1 1 0 1 0 1 0 0 
   1 1 0 1 0 1 0 1 
   1 1 0 1 0 1 1 0 
   1 1 0 1 0 1 1 1 
   1 1 0 1 1 0 0 0 
   1 1 0 1 1 0 0 1 
   1 1 0 1 1 0 1 0 
   1 1 0 1 1 0 1 1 
   1 1 0 1 1 1 0 0 
   1 1 0 1 1 1 0 1 
   1 1 0 1 1 1 1 0 
   1 1 0 1 1 1 1 1 
   1 1 1 0 0 0 0 0 
   1 1 1 0 0 0 0 1 
   1 1 1 0 0 0 1 0 
   1 1 1 0 0 0 1 1 
   1 1 1 0 0 1 0 0 
   1 1 1 0 0 1 0 1 
   1 1 1 0 0 1 1 0 
   1 1 1 0 0 1 1 1 
   1 1 1 0 1 0 0 0 
   1 1 1 0 1 0 0 1 
   1 1 1 0 1 0 1 0 
   1 1 1 0 1 0 1 1 
   1 1 1 0 1 1 0 0 
   1 1 1 0 1 1 0 1 
   1 1 1 0 1 1 1 0 
   1 1 1 0 1 1 1 1 
   1 1 1 1 0 0 0 0 
   1 1 1 1 0 0 0 1 
   1 1 1 1 0 0 1 0 
   1 1 1 1 0 0 1 1 
   1 1 1 1 0 1 0 0 
   1 1 1 1 0 1 0 1 
   1 1 1 1 0 1 1 0 
   1 1 1 1 0 1 1 1 
   1 1 1 1 1 0 0 0 
   1 1 1 1 1 0 0 1 
   1 1 1 1 1 0 1 0 
   1 1 1 1 1 0 1 1 
   1 1 1 1 1 1 0 0 
   1 1 1 1 1 1 0 1 
   1 1 1 1 1 1 1 0 
   1 1 1 1 1 1 1 1 
   
    ;

/*demanda de enfermeiros por dia e turno*/
param r :
      L   E   N :=
1     2     2     1     /* 01/01/2010 - */
2     2     2     1     /* 02/01/2010 - */
3     2     2     1     /* 03/01/2010 - */
4     2     2     1     /* 04/01/2010 - Monday*/
5     2     2     1     /* 05/01/2010 - */
6     2     2     1     /* 06/01/2010 - */
7     2     2     1     /* 07/01/2010 - */
8     2     2     1     /* 08/01/2010 - */
9     2     2     1     /* 09/01/2010 - */
10     2     2     1     /* 10/01/2010 - */
11     2     2     1     /* 11/01/2010 - Monday*/
12     2     2     1     /* 12/01/2010 - */
13     2     2     1     /* 13/01/2010 - */
14     2     2     1     /* 14/01/2010 - */
15     2     2     1     /* 15/01/2010 - */
16     2     2     1     /* 16/01/2010 - */
17     2     2     1     /* 17/01/2010 - */
18     2     2     1     /* 18/01/2010 - Monday*/
19     2     2     1     /* 19/01/2010 - */
20     2     2     1     /* 20/01/2010 - */
21     2     2     1     /* 21/01/2010 - */
22     2     2     1     /* 22/01/2010 - */
23     2     2     1     /* 23/01/2010 - */
24     2     2     1     /* 24/01/2010 - */
25     2     2     1     /* 25/01/2010 - Monday*/
26     2     2     1     /* 26/01/2010 - */
27     2     2     1     /* 27/01/2010 - */
28     2     2     1     /* 28/01/2010 - */
    ;

/*tipo de contrato de cada enfermeiro*/
param cn := 
    N3   C0
    N2   C0
    N1   C0
    N0   C0
    N7   C2
    N6   C1
    N5   C1
    N4   C1
    N9   C2
    N8   C2
    ;

/*MaxNumAssignments*/
param na_Max := 
     C0   20
     C1   15
     C2   10
    ;

/*WeightMaxNumAssignments*/
param wna_Max := 
     C0   5
     C1   5
     C2   5
    ;

/*MinNumAssignments*/
param na_Min := 
     C0   9
     C1   6
     C2   4
    ;

/*WeightMinNumAssignments*/
param wna_Min := 
     C0   5
     C1   5
     C2   5
    ;

/*MaxConsecutiveWorkingDays*/
param nw_Max := 
     C0   6
     C1   5
     C2   4
    ;

/*WeightMaxConsecutiveWorkingDays*/
param wnw_Max := 
     C0   8
     C1   8
     C2   8
    ;

/*MinConsecutiveWorkingDays*/
param nw_Min := 
     C0   3
     C1   3
     C2   2
    ;

/*WeightMinConsecutiveWorkingDays*/
param wnw_Min := 
     C0   7
     C1   7
     C2   7
    ;

/*MaxConsecutiveFreeDays*/
param nf_Max := 
     C0   4
     C1   4
     C2   7
    ;

/*WeightMaxConsecutiveFreeDays*/
param wnf_Max := 
     C0   6
     C1   6
     C2   6
    ;

/*MinConsecutiveFreeDays*/
param nf_Min := 
     C0   2
     C1   3
     C2   4
    ;

/*WeightMinConsecutiveFreeDays*/
param wnf_Min := 
     C0   8
     C1   8
     C2   8
    ;

/*MaxConsecutiveWorkingWeekends*/
param nwec_Max := 
     C0   6
     C1   5
     C2   4
    ;

/*WeightMaxConsecutiveWorkingWeekends*/
param wnwec_Max := 
     C0   10
     C1   10
     C2   10
    ;

/*MinConsecutiveWorkingWeekends*/
param nwec_Min := 
     C0   3
     C1   3
     C2   0
    ;

/*WeightMinConsecutiveWorkingWeekends*/
param wnwec_Min := 
     C0   3
     C1   3
     C2   3
    ;

/*MaxWorkingWeekendsInFourWeeks*/
param nw4_Max := 
     C0   0
     C1   0
     C2   0
    ;

/*WeightMaxWorkingWeekendsInFourWeeks*/
param wnw4_Max := 
     C0   0
     C1   0
     C2   0
    ;

/*CompleteWeekends*/
param fw := 
     C0   1
     C1   1
     C2   1
    ;

/*WeightIdent.ShiftTypesDuringWeekend*/
param wfw := 
     C0   10
     C1   10
     C2   10
    ;

/*Ident.ShiftTypesDuringWeekend*/
param ssw := 
     C0   1
     C1   1
     C2   1
    ;

/*WeightIdent.ShiftTypesDuringWeekend*/
param wssw := 
     C0   10
     C1   10
     C2   10
    ;

/* NoNightShiftBeforeFreeWeekend */
param nnsbw := 
     C0   0
     C1   0
     C2   0
    ;

/*WeightNoNightShiftBeforeFreeWeekend*/
param wnnsbw := 
     C0   0
     C1   0
     C2   0
    ;

/*TwoFreeDaysAfterNightShifts*/
param nO := 
     C0   0
     C1   0
     C2   0
    ;

/* AlternativeSkillCategory */
param wAltS := 
     C0   0
     C1   0
     C2   0
    ;

param npit := 
     C0   3
     C1   3
     C2   3
    ;

param tpit := 
     C0   1   2
     C0   2   2
     C0   3   2
     C1   1   2
     C1   2   2
     C1   3   2
     C2   1   2
     C2   2   2
     C2   3   2
    ;

param cpit := 
     C0   1   1   L
     C0   1   2   E
     C0   2   1   L
     C0   2   2   N
     C0   3   1   N
     C0   3   2   E
     C1   1   1   L
     C1   1   2   E
     C1   2   1   L
     C1   2   2   N
     C1   3   1   N
     C1   3   2   E
     C2   1   1   L
     C2   1   2   E
     C2   2   1   L
     C2   2   2   N
     C2   3   1   N
     C2   3   2   E
    ;

param wpit := 
     C0   1   1
     C0   2   1
     C0   3   1
     C1   1   1
     C1   2   1
     C1   3   1
     C2   1   1
     C2   2   1
     C2   3   1
    ;

param npid := 
     C0   12
     C1   12
     C2   12
    ;

param tpid := 
     C0   1   3
     C0   2   3
     C0   3   3
     C0   4   3
     C0   5   3
     C0   6   3
     C0   7   3
     C0   8   3
     C0   9   3
     C0   10   3
     C0   11   3
     C0   12   3
     C1   1   3
     C1   2   3
     C1   3   3
     C1   4   3
     C1   5   3
     C1   6   3
     C1   7   3
     C1   8   3
     C1   9   3
     C1   10   3
     C1   11   3
     C1   12   3
     C2   1   3
     C2   2   3
     C2   3   3
     C2   4   3
     C2   5   3
     C2   6   3
     C2   7   3
     C2   8   3
     C2   9   3
     C2   10   3
     C2   11   3
     C2   12   3
    ;

param cpid := 
     C0   1   1   -1
     C0   1   2   2
     C0   1   3   3
     C0   2   1   -1
     C0   2   2   -2
     C0   2   3   3
     C0   3   1   -1
     C0   3   2   2
     C0   3   3   -3
     C0   4   1   -8
     C0   4   2   9
     C0   4   3   10
     C0   5   1   -8
     C0   5   2   -9
     C0   5   3   10
     C0   6   1   -8
     C0   6   2   9
     C0   6   3   -10
     C0   7   1   -15
     C0   7   2   16
     C0   7   3   17
     C0   8   1   -15
     C0   8   2   -16
     C0   8   3   17
     C0   9   1   -15
     C0   9   2   16
     C0   9   3   -17
     C0   10   1   -22
     C0   10   2   23
     C0   10   3   24
     C0   11   1   -22
     C0   11   2   -23
     C0   11   3   24
     C0   12   1   -22
     C0   12   2   23
     C0   12   3   -24
     C1   1   1   -1
     C1   1   2   2
     C1   1   3   3
     C1   2   1   -1
     C1   2   2   -2
     C1   2   3   3
     C1   3   1   -1
     C1   3   2   2
     C1   3   3   -3
     C1   4   1   -8
     C1   4   2   9
     C1   4   3   10
     C1   5   1   -8
     C1   5   2   -9
     C1   5   3   10
     C1   6   1   -8
     C1   6   2   9
     C1   6   3   -10
     C1   7   1   -15
     C1   7   2   16
     C1   7   3   17
     C1   8   1   -15
     C1   8   2   -16
     C1   8   3   17
     C1   9   1   -15
     C1   9   2   16
     C1   9   3   -17
     C1   10   1   -22
     C1   10   2   23
     C1   10   3   24
     C1   11   1   -22
     C1   11   2   -23
     C1   11   3   24
     C1   12   1   -22
     C1   12   2   23
     C1   12   3   -24
     C2   1   1   -1
     C2   1   2   2
     C2   1   3   3
     C2   2   1   -1
     C2   2   2   -2
     C2   2   3   3
     C2   3   1   -1
     C2   3   2   2
     C2   3   3   -3
     C2   4   1   -8
     C2   4   2   9
     C2   4   3   10
     C2   5   1   -8
     C2   5   2   -9
     C2   5   3   10
     C2   6   1   -8
     C2   6   2   9
     C2   6   3   -10
     C2   7   1   -15
     C2   7   2   16
     C2   7   3   17
     C2   8   1   -15
     C2   8   2   -16
     C2   8   3   17
     C2   9   1   -15
     C2   9   2   16
     C2   9   3   -17
     C2   10   1   -22
     C2   10   2   23
     C2   10   3   24
     C2   11   1   -22
     C2   11   2   -23
     C2   11   3   24
     C2   12   1   -22
     C2   12   2   23
     C2   12   3   -24
    ;

param wpid := 
     C0   1   1
     C0   2   1
     C0   3   1
     C0   4   1
     C0   5   1
     C0   6   1
     C0   7   1
     C0   8   1
     C0   9   1
     C0   10   1
     C0   11   1
     C0   12   1
     C1   1   1
     C1   2   1
     C1   3   1
     C1   4   1
     C1   5   1
     C1   6   1
     C1   7   1
     C1   8   1
     C1   9   1
     C1   10   1
     C1   11   1
     C1   12   1
     C2   1   1
     C2   2   1
     C2   3   1
     C2   4   1
     C2   5   1
     C2   6   1
     C2   7   1
     C2   8   1
     C2   9   1
     C2   10   1
     C2   11   1
     C2   12   1
    ;

end;
